p cnf 45 75
 -12 0
 -15 0
 -17 0
  29 0
  31 0
  32 0
  35 0
  36 0
  18 -19 0
  20 -21 0
  23 -24 0
  25 -26 0
  19 -18 0
  24 -23 0
  28 -29 0
  21 -20 0
  26 -25 0
  29 -28 0
  31  16 0
  33  19 0
  34  21 0
  36  22 0
  37  24 0
  38  26 0
  39  18 0
  40  23 0
  41  27 0
  42  20 0
  43  25 0
  44  28 0
  45  30 0
  39 -40 0
  42 -43 0
  42 -39 -44 0
  40 -39 0
  43 -42 0
  43 -40 -44 0
  33 -37 0
  33 -44 -34 0
  37 -33 0
  37 -44 -38 0
  41 -33 -39 0
  41 -37 -40 0
  44 -33 -42 0
  44 -37 -43 0
  34 -38 0
  38 -34 0
 -34 -39 0
 -38 -40 0
  45 -34 -42 0
  45 -38 -43 0
  16 -18 -19 0
  16 -20 -21 0
 -18 -24 0
 -20 -26 0
  18 -20 0
  20 -18 -28 0
 -23 -19 0
 -25 -21 0
  22 -23 -24 0
  22 -25 -26 0
  23 -25 0
  25 -23 -28 0
  19 -28 -21 0
  24 -28 -26 0
  27 -19 -18 0
  27 -24 -23 0
  27 -28 0
  28 -19 -20 0
  28 -24 -25 0
  21 -19 0
  26 -24 0
  30 -21 -20 0
  30 -26 -25 0
  30 -28 0
